GLPSOL: GLPK LP/MIP Solver, v4.55
Parameter(s) specified in the command line:
 -m tmp.mod
Reading model section from tmp.mod...
Reading data section from tmp.mod...
178 lines were read
Generating obj...
Generating kirhoff...
Generating init_charge...
Generating batt_size...
Model has been successfully generated
GLPK Simplex Optimizer, v4.55
149 rows, 201 columns, 376 non-zeros
Preprocessing...
83 rows, 151 columns, 303 non-zeros
Scaling...
 A: min|aij| =  1.000e+00  max|aij| =  1.000e+00  ratio =  1.000e+00
Problem data seem to be well scaled
Constructing initial basis...
Size of triangular part is 70
      0: obj =   0.000000000e+00  infeas =  1.270e+02 (13)
*    38: obj =   3.000000000e+00  infeas =  0.000e+00 (12)
*    40: obj =   1.000000000e+00  infeas =  0.000e+00 (12)
OPTIMAL LP SOLUTION FOUND
Time used:   0.0 secs
Memory used: 0.5 Mb (511932 bytes)
#OUTPUT:
1
-3 -3 -5 -13 0 -3 0 -2 -1 -1 -2 -14 -5 0 -13 -5 0 0 
-3 -3 -12 0 0 -3 -1 -14 0 0 2 0 -11 1 0 -2 0 0 
-3 -3 -12 0 -4 -3 -13 0 -9 0 0 0 1 0 0 0 0 0 
0 0 -11 0 0 0 -11 0 0 0 0 0 0 0 0 0 0 0 
0 0 -9 0 0 0 0 -9 0 0 0 0 -9 0 0 0 0 0 
#OUTPUT END
Model has been successfully processed
